p wcnf 149 224 225 
1 -14 54 0 
1 -122 66 0 
1 -84 19 0 
1 141 -107 0 
1 59 -40 0 
1 -125 148 0 
1 -3 128 0 
1 88 -32 0 
1 8 -123 0 
1 7 -103 0 
1 22 -57 0 
1 33 6 0 
1 88 -56 0 
1 12 135 0 
1 -23 -139 0 
1 -36 -18 0 
1 104 69 0 
1 -59 126 0 
1 17 114 0 
1 -126 -71 0 
1 -127 14 0 
1 61 -74 0 
1 128 88 0 
1 72 96 0 
1 -127 101 0 
1 -140 54 0 
1 145 146 0 
1 -41 100 0 
1 7 37 0 
1 107 -90 0 
1 -96 -65 0 
1 11 27 0 
1 -47 125 0 
1 -64 9 0 
1 -67 -8 0 
1 -89 85 0 
1 -83 -47 0 
1 138 -90 0 
1 -79 -76 0 
1 95 125 0 
1 -99 110 0 
1 -4 52 0 
1 135 72 0 
1 -17 -68 0 
1 85 -137 0 
1 8 -71 0 
1 72 119 0 
1 41 -140 0 
1 -133 89 0 
1 131 -2 0 
1 -90 110 0 
1 -140 -48 0 
1 40 28 0 
1 142 49 0 
1 142 -77 0 
1 74 -133 0 
1 71 108 0 
1 -63 117 0 
1 135 139 0 
1 106 -19 0 
1 -107 16 0 
1 -25 -145 0 
1 12 -98 0 
1 26 -149 0 
1 -23 -100 0 
1 123 -27 0 
1 124 -48 0 
1 115 127 0 
1 123 124 0 
1 21 118 0 
1 -62 94 0 
1 -64 121 0 
1 -33 -52 0 
1 -87 31 0 
1 71 -90 0 
1 -2 -130 0 
1 -65 -55 0 
1 2 3 0 
1 -143 109 0 
1 -119 -148 0 
1 -36 92 0 
1 -36 10 0 
1 94 15 0 
1 143 -39 0 
1 84 60 0 
1 -11 114 0 
1 -136 -99 0 
1 -63 35 0 
1 -85 -2 0 
1 96 81 0 
1 -95 -92 0 
1 82 -37 0 
1 49 -134 0 
1 39 -135 0 
1 93 35 0 
1 78 149 0 
1 -113 30 0 
1 -59 30 0 
1 -142 -97 0 
1 13 -2 0 
1 -117 135 0 
1 -141 -38 0 
1 76 69 0 
1 -73 91 0 
1 19 -113 0 
1 104 -114 0 
1 -143 -85 0 
1 12 98 0 
1 20 130 0 
1 104 54 0 
1 -104 59 0 
1 13 -130 0 
1 -105 -122 0 
1 -81 -111 0 
1 -4 -58 0 
1 90 -8 0 
1 -80 74 0 
1 1 143 0 
1 -29 88 0 
1 140 -41 0 
1 -80 -138 0 
1 85 -73 0 
1 -115 -31 0 
1 -76 -114 0 
1 128 135 0 
1 -135 139 0 
1 36 48 0 
1 -145 66 0 
1 103 97 0 
1 -64 -96 0 
1 47 -72 0 
1 129 -132 0 
1 83 -64 0 
1 124 63 0 
1 89 -23 0 
1 88 33 0 
1 -46 125 0 
1 -114 62 0 
1 -96 74 0 
1 -90 -57 0 
1 73 -3 0 
1 139 -146 0 
1 -89 -126 0 
1 108 -35 0 
1 -113 74 0 
1 56 22 0 
1 124 -136 0 
1 -26 -126 0 
1 -32 112 0 
1 -9 -116 0 
1 -114 -50 0 
1 72 46 0 
1 80 -124 0 
1 -137 -47 0 
1 -55 102 0 
1 -48 -136 0 
1 -81 8 0 
1 -24 130 0 
1 140 -119 0 
1 114 -99 0 
1 148 74 0 
1 149 -25 0 
1 25 -101 0 
1 68 44 0 
1 -31 96 0 
1 112 -142 0 
1 -95 -9 0 
1 -43 -146 0 
1 -45 -126 0 
1 -12 -71 0 
1 -47 124 0 
1 -8 110 0 
1 43 7 0 
1 120 10 0 
1 34 24 0 
1 142 -91 0 
1 50 -138 0 
1 103 -81 0 
1 -33 -38 0 
1 -125 98 0 
1 -77 3 0 
1 132 -85 0 
1 125 43 0 
1 -91 -89 0 
1 -114 41 0 
1 12 -74 0 
1 40 3 0 
1 -115 -145 0 
1 24 -37 0 
1 9 115 0 
1 -132 136 0 
1 105 35 0 
1 120 -136 0 
1 -131 -87 0 
1 -61 -110 0 
1 -87 39 0 
1 74 24 0 
1 -40 -35 0 
1 28 56 0 
1 19 -79 0 
1 51 -76 0 
1 -17 -13 0 
1 36 62 0 
1 -6 -131 0 
1 -121 127 0 
1 57 99 0 
1 34 135 0 
1 -130 -102 0 
1 -42 144 0 
1 141 -143 0 
1 37 -26 0 
1 -120 -27 0 
1 -2 -62 0 
1 -61 -49 0 
1 -92 -145 0 
1 142 -7 0 
1 -45 130 0 
1 -18 56 0 
1 -15 125 0 
1 -106 143 0 
1 12 143 0 
1 72 54 0 
1 -74 -30 0 
1 -109 -18 0 
